c colouring generated by benchmark framework
p edge 300 21633
v 1 20
v 2 11
v 3 12
v 4 20
v 5 18
v 6 47
v 7 34
v 8 37
v 9 2
v 10 22
v 11 39
v 12 33
v 13 32
v 14 40
v 15 10
v 16 26
v 17 51
v 18 32
v 19 49
v 20 5
v 21 14
v 22 24
v 23 31
v 24 30
v 25 21
v 26 22
v 27 1
v 28 12
v 29 9
v 30 11
v 31 6
v 32 24
v 33 27
v 34 4
v 35 5
v 36 43
v 37 38
v 38 26
v 39 1
v 40 43
v 41 17
v 42 17
v 43 19
v 44 10
v 45 17
v 46 9
v 47 23
v 48 37
v 49 44
v 50 21
v 51 25
v 52 31
v 53 23
v 54 36
v 55 19
v 56 10
v 57 24
v 58 35
v 59 10
v 60 22
v 61 46
v 62 25
v 63 30
v 64 17
v 65 27
v 66 44
v 67 2
v 68 6
v 69 25
v 70 25
v 71 48
v 72 39
v 73 36
v 74 17
v 75 9
v 76 10
v 77 27
v 78 20
v 79 15
v 80 2
v 81 44
v 82 1
v 83 6
v 84 26
v 85 3
v 86 6
v 87 3
v 88 14
v 89 46
v 90 22
v 91 17
v 92 9
v 93 11
v 94 28
v 95 42
v 96 5
v 97 44
v 98 36
v 99 8
v 100 51
v 101 30
v 102 14
v 103 12
v 104 11
v 105 23
v 106 7
v 107 15
v 108 1
v 109 26
v 110 18
v 111 31
v 112 10
v 113 7
v 114 4
v 115 32
v 116 24
v 117 39
v 118 5
v 119 3
v 120 30
v 121 17
v 122 18
v 123 23
v 124 29
v 125 13
v 126 13
v 127 28
v 128 7
v 129 26
v 130 46
v 131 11
v 132 26
v 133 33
v 134 13
v 135 45
v 136 21
v 137 11
v 138 4
v 139 22
v 140 40
v 141 0
v 142 38
v 143 21
v 144 5
v 145 26
v 146 16
v 147 13
v 148 49
v 149 33
v 150 43
v 151 9
v 152 14
v 153 7
v 154 12
v 155 45
v 156 36
v 157 8
v 158 4
v 159 5
v 160 19
v 161 49
v 162 14
v 163 28
v 164 29
v 165 22
v 166 48
v 167 41
v 168 16
v 169 40
v 170 39
v 171 24
v 172 9
v 173 2
v 174 37
v 175 12
v 176 42
v 177 18
v 178 23
v 179 16
v 180 19
v 181 34
v 182 7
v 183 1
v 184 4
v 185 15
v 186 0
v 187 29
v 188 13
v 189 28
v 190 27
v 191 25
v 192 41
v 193 28
v 194 28
v 195 48
v 196 5
v 197 4
v 198 3
v 199 1
v 200 49
v 201 0
v 202 21
v 203 10
v 204 21
v 205 33
v 206 16
v 207 8
v 208 42
v 209 0
v 210 13
v 211 19
v 212 45
v 213 26
v 214 18
v 215 2
v 216 38
v 217 3
v 218 42
v 219 33
v 220 14
v 221 1
v 222 27
v 223 3
v 224 0
v 225 16
v 226 26
v 227 8
v 228 17
v 229 6
v 230 29
v 231 50
v 232 7
v 233 13
v 234 4
v 235 43
v 236 29
v 237 30
v 238 19
v 239 32
v 240 32
v 241 3
v 242 2
v 243 0
v 244 0
v 245 6
v 246 12
v 247 18
v 248 3
v 249 18
v 250 25
v 251 15
v 252 29
v 253 31
v 254 16
v 255 8
v 256 7
v 257 47
v 258 50
v 259 47
v 260 30
v 261 25
v 262 7
v 263 38
v 264 8
v 265 31
v 266 29
v 267 41
v 268 35
v 269 37
v 270 2
v 271 31
v 272 8
v 273 34
v 274 41
v 275 33
v 276 35
v 277 15
v 278 33
v 279 11
v 280 35
v 281 18
v 282 35
v 283 2
v 284 0
v 285 36
v 286 20
v 287 14
v 288 12
v 289 15
v 290 41
v 291 0
v 292 16
v 293 37
v 294 20
v 295 9
v 296 10
v 297 34
v 298 5
v 299 6
v 300 15
